\ LP format - for model browsing. Use MPS format to capture full model detail.
Maximize
  46.57575757575759 z1 + 23.90909090909092 z2 + 40.87878787878789 z3 + 14 z4
   + 26 z5 + 22.54545454545453 z6 + 18.33333333333335 z7
   + 9.909090909090917 z8 + 18 z9 + 33 z10 + 12.75757575757576 z11 + 46 z12
   + 19.81818181818182 z13 + 31.42424242424243 z14 + 40.87878787878788 z15
   + 38.15151515151516 z16 + 35.33333333333334 z17 + 41 z18
   + 47.33333333333334 z19 + 39.51515151515152 z20
Subject To
 constraint1: 47 z1 + 24 z2 + 41 z3 + 14 z4 + 26 z5 + 23 z6 + 19 z7 + 11 z8
   + 18 z9 + 33 z10 + 13 z11 + 46 z12 + 20 z13 + 32 z14 + 41 z15 + 39 z16
   + 36 z17 + 41 z18 + 48 z19 + 40 z20 <= 200
 constraints2_5_&_19: z5 - z19 = 0
 constraints2_9_&_14: z9 - z14 = 0
 constraints2_10_&_12: z10 - z12 = 0
 constraints2_12_&_17: z12 - z17 = 0
 constraints3_1_|_20: z1 + z20 <= 1
 constraints3_2_|_4: z2 + z4 <= 1
 constraints3_3_|_5: z3 + z5 <= 1
 constraints3_5_|_15: z5 + z15 <= 1
 constraints3_8_|_15: z8 + z15 <= 1
 constraints3_9_|_18: z9 + z18 <= 1
 constraints3_10_|_13: z10 + z13 <= 1
 constraints3_10_|_15: z10 + z15 <= 1
 constraints3_12_|_15: z12 + z15 <= 1
 constraints3_13_|_17: z13 + z17 <= 1
 constraints3_15_|_20: z15 + z20 <= 1
 constraints3_16_|_18: z16 + z18 <= 1
Bounds
Binaries
 z1 z2 z3 z4 z5 z6 z7 z8 z9 z10 z11 z12 z13 z14 z15 z16 z17 z18 z19 z20
End
